This is Ipopt version 3.10.1, running with linear solver mumps.

Number of nonzeros in equality constraint Jacobian...:      236
Number of nonzeros in inequality constraint Jacobian.:        0
Number of nonzeros in Lagrangian Hessian.............:     5892

Total number of variables............................:      120
                     variables with only lower bounds:        0
                variables with lower and upper bounds:      120
                     variables with only upper bounds:        0
Total number of equality constraints.................:       59
Total number of inequality constraints...............:        0
        inequality constraints with only lower bounds:        0
   inequality constraints with lower and upper bounds:        0
        inequality constraints with only upper bounds:        0

iter    objective    inf_pr   inf_du lg(mu)  ||d||  lg(rg) alpha_du alpha_pr  ls
   0 -3.3037151e-03 1.00e-02 1.62e-03  -1.0 0.00e+00    -  0.00e+00 0.00e+00   0
   1 -3.3522596e-03 2.22e-16 1.90e-03  -1.7 2.22e-02    -  9.85e-01 1.00e+00h  1
   2 -3.3358136e-03 2.13e-10 1.78e-05  -2.5 3.23e-02    -  1.00e+00 1.00e+00f  1
   3 -4.2491638e-03 4.44e-16 6.69e-04  -3.8 4.92e-02    -  9.23e-01 1.00e+00f  1
   4 -1.7982436e-02 2.53e-12 1.50e-02  -5.7 3.56e-01  -2.0 4.23e-01 4.65e-01f  1
   5 -2.0270032e-02 3.94e-12 1.22e-02  -5.7 3.94e-02  -0.7 9.54e-01 3.07e-01f  1
   6 -2.8245645e-02 3.60e-12 3.57e-02  -5.7 5.32e-01  -1.1 7.37e-01 8.54e-02f  1
   7 -3.5874280e-02 1.76e-12 1.59e-02  -5.7 7.66e-02  -0.7 1.00e+00 5.12e-01f  1
   8 -4.1151755e-02 4.62e-13 1.65e-02  -5.7 3.12e-02  -0.3 1.00e+00 7.37e-01f  1
   9 -4.5352046e-02 2.31e-12 3.35e-02  -5.7 1.88e-01  -0.8 1.00e+00 9.37e-02f  1
iter    objective    inf_pr   inf_du lg(mu)  ||d||  lg(rg) alpha_du alpha_pr  ls
  10 -5.0093942e-02 3.80e-12 1.65e-02  -5.7 4.56e-02  -0.3 1.00e+00 4.31e-01f  1
  11 -5.3722616e-02 3.60e-12 8.06e-02  -5.7 2.63e-01  -0.8 1.00e+00 5.31e-02f  1
  12 -5.9592998e-02 4.69e-12 1.88e-02  -5.7 5.36e-02  -0.4 1.00e+00 4.40e-01f  1
  13 -7.5262392e-02 9.87e-12 1.01e-01  -5.7 4.45e-01  -0.9 1.00e+00 1.20e-01f  1
  14 -8.4112041e-02 1.13e-11 2.96e-02  -5.7 1.04e-01  -0.4 1.00e+00 2.46e-01f  1
  15 -8.7216201e-02 1.02e-11 2.78e-02  -5.7 3.30e-02  -0.0 1.00e+00 2.48e-01f  1
  16 -9.2277725e-02 9.08e-12 7.43e-02  -5.7 1.23e-01  -0.5 1.00e+00 1.06e-01f  1
  17 -9.4794150e-02 7.12e-12 3.76e-02  -5.7 3.10e-02  -0.1 1.00e+00 2.16e-01f  1
  18 -9.8711508e-02 8.74e-12 6.32e-02  -5.7 1.27e-01  -0.6 1.00e+00 8.38e-02f  1
  19 -1.0581136e-01 3.65e-12 2.72e-02  -5.7 3.99e-02  -0.1 1.00e+00 5.82e-01f  1
iter    objective    inf_pr   inf_du lg(mu)  ||d||  lg(rg) alpha_du alpha_pr  ls
  20 -1.1110567e-01 5.86e-12 5.98e-02  -5.7 1.85e-01  -0.6 1.00e+00 8.05e-02f  1
  21 -1.1816437e-01 6.97e-12 3.03e-02  -5.7 5.02e-02  -0.2 1.00e+00 3.89e-01f  1
  22 -1.2123537e-01 7.99e-12 1.07e-01  -5.7 2.57e-01  -0.7 1.00e+00 2.96e-02f  1
  23 -1.3429331e-01 8.74e-12 2.61e-02  -5.7 4.45e-02  -0.2 1.00e+00 7.53e-01f  1
  24 -1.4136492e-01 8.17e-12 2.72e-02  -5.7 3.46e-01  -0.7 1.65e-01 6.51e-02f  1
  25 -1.4445169e-01 6.94e-12 6.00e-02  -5.7 6.42e-02  -0.3 1.00e+00 1.51e-01f  1
  26 -1.5060960e-01 6.70e-12 5.68e-02  -5.7 6.85e-01  -0.8 2.86e-02 3.50e-02f  1
  27 -1.5290551e-01 6.75e-12 5.78e-02  -5.7 5.74e-02  -0.3 1.00e+00 1.20e-01f  1
  28 -1.5480020e-01 6.66e-12 6.06e-02  -5.7 6.24e-01  -0.8 4.21e-02 1.45e-02f  1
  29 -1.5653913e-01 6.06e-12 4.16e-02  -5.7 5.67e-02  -0.4 1.00e+00 8.91e-02f  1
iter    objective    inf_pr   inf_du lg(mu)  ||d||  lg(rg) alpha_du alpha_pr  ls
  30 -1.5377560e-01 6.05e-12 3.86e-02  -5.7 2.13e+01  -0.9 5.20e-03 1.73e-03h  1
  31 -1.7077705e-01 1.16e-11 2.24e-02  -5.7 5.82e-02  -0.4 1.00e+00 9.41e-01f  1
  32 -1.8044173e-01 1.08e-11 2.13e-02  -5.7 5.24e-01  -0.9 7.51e-02 7.02e-02f  1
  33 -1.8214301e-01 9.63e-12 8.70e-02  -5.7 6.20e-02  -0.5 6.23e-01 1.09e-01f  1
  34 -1.8377441e-01 7.12e-12 3.42e-02  -5.7 2.22e-02  -0.1 1.00e+00 2.61e-01f  1
  35 -1.9270561e-01 7.11e-12 3.78e-02  -5.7 7.72e-02  -0.5 1.00e+00 4.16e-01f  1
  36 -1.9526689e-01 7.94e-12 4.53e-02  -5.7 2.59e-02  -0.1 1.00e+00 4.63e-01f  1
  37 -2.0397826e-01 4.64e-12 2.52e-02  -5.7 1.05e-01  -0.6 4.42e-01 4.16e-01f  1
  38 -2.1378781e-01 4.33e-12 3.55e-02  -5.7 1.39e+00  -1.1 1.71e-02 6.61e-02f  1
  39 -2.1416669e-01 4.23e-12 1.04e-01  -5.7 8.66e-02  -0.6 1.00e+00 2.29e-02f  1
iter    objective    inf_pr   inf_du lg(mu)  ||d||  lg(rg) alpha_du alpha_pr  ls
  40 -2.1586735e-01 4.96e-12 3.93e-02  -5.7 2.38e-02  -0.2 1.00e+00 2.61e-01f  1
  41 -2.2073424e-01 3.32e-12 4.31e-02  -5.7 5.68e-02  -0.7 1.00e+00 3.31e-01f  1
  42 -2.5391372e-01 2.04e-12 3.05e-02  -5.7 4.18e-01  -1.2 3.41e-01 3.87e-01f  1
  43 -2.5883333e-01 1.81e-12 3.40e-02  -5.7 1.74e-01  -0.7 3.24e-01 1.13e-01f  1
  44 -2.5891712e-01 1.78e-12 1.46e-01  -5.7 4.22e-02  -0.3 1.00e+00 1.48e-02f  1
  45 -2.6431229e-01 1.15e-12 7.12e-02  -5.7 1.02e-01  -0.8 1.00e+00 3.56e-01f  1
  46 -2.6476519e-01 1.13e-12 1.52e-01  -5.7 3.36e-01  -1.3 6.34e-01 1.50e-02f  1
  47 -2.6510891e-01 1.15e-12 3.98e-02  -5.7 4.49e-02  -0.8 1.00e+00 8.69e-02f  1
  48 -2.6915719e-01 3.15e-11 7.07e-02  -5.7 4.39e-01  -1.3 3.05e-02 1.72e-01f  1
  49 -2.7602108e-01 1.06e-11 1.52e-02  -5.7 1.00e-01  -0.9 8.87e-01 8.31e-01f  1
iter    objective    inf_pr   inf_du lg(mu)  ||d||  lg(rg) alpha_du alpha_pr  ls
  50 -2.7706381e-01 1.35e-11 7.90e-02  -5.7 4.31e-02  -0.5 8.24e-01 2.46e-01f  1
  51 -2.8195063e-01 9.89e-12 7.85e-02  -5.7 5.94e-02  -0.9 2.57e-01 8.81e-01f  1
  52 -2.8264558e-01 6.38e-12 6.40e-02  -5.7 3.67e-02  -0.5 1.00e+00 3.55e-01f  1
  53 -3.0410944e-01 2.22e-16 6.81e-02  -5.7 1.29e-01  -1.0 4.43e-02 1.00e+00f  1
  54 -3.3116727e-01 2.22e-16 1.03e-01  -5.7 1.84e+00  -1.5 1.08e-01 1.29e-01f  1
  55 -3.3185699e-01 2.22e-16 1.13e-01  -5.7 6.67e-01  -0.1 4.93e-02 1.26e-02f  1
  56 -3.3196548e-01 7.80e-14 9.14e-02  -5.7 1.70e-01  -0.6 4.50e-01 1.36e-03f  1
  57 -3.4137071e-01 1.12e-11 4.58e-02  -5.7 4.05e-02  -0.2 4.34e-02 5.00e-01f  1
  58 -3.4915733e-01 1.10e-11 5.23e-02  -5.7 8.67e-01  -0.7 2.69e-02 1.95e-02f  1
  59 -3.5916221e-01 1.96e-11 5.29e-02  -5.7 7.10e-02  -0.2 1.96e-01 3.30e-01f  1
iter    objective    inf_pr   inf_du lg(mu)  ||d||  lg(rg) alpha_du alpha_pr  ls
  60 -3.6537842e-01 1.09e-11 3.31e-02  -5.7 2.59e-02   0.2 7.19e-01 4.45e-01f  1
  61 -3.7114204e-01 5.28e-11 8.80e-02  -5.7 1.31e-01  -0.3 3.94e-02 8.67e-02f  1
  62 -3.7113526e-01 5.28e-11 9.98e-02  -5.7 4.26e-01  -0.8 1.35e-01 1.16e-04f  5
  63 -3.8676500e-01 4.58e-11 1.03e-01  -5.7 2.09e-01  -0.3 1.23e-02 1.33e-01f  1
  64 -3.9473079e-01 3.01e-11 7.36e-02  -5.7 5.23e-02   0.1 4.12e-01 2.32e-01f  1
  65 -4.1777843e-01 2.35e-11 5.80e-02  -5.7 2.10e-01  -0.4 2.12e-01 2.19e-01f  1
  66 -4.1777947e-01 2.35e-11 6.00e-02  -5.7 1.58e+00  -0.9 1.93e-02 7.01e-05f  2
  67 -4.6268983e-01 4.09e-11 1.56e-01  -5.7 8.88e-01  -0.5 9.61e-04 6.88e-02f  1
  68 -4.7609505e-01 3.63e-11 1.03e-01  -5.7 1.38e-01  -0.0 1.51e-01 1.14e-01f  1
  69 -4.7609037e-01 3.63e-11 1.38e-01  -5.7 4.60e-01  -0.5 2.24e-02 1.09e-05f 10
iter    objective    inf_pr   inf_du lg(mu)  ||d||  lg(rg) alpha_du alpha_pr  ls
  70 -4.8444135e-01 3.52e-11 1.20e-01  -5.7 1.98e-01  -0.1 8.55e-02 4.32e-02f  1
  71 -4.8443562e-01 3.52e-11 1.21e-01  -5.7 3.84e-01  -0.6 4.13e-04 1.62e-05f 11
  72 -4.8892048e-01 4.62e-11 1.71e-01  -5.7 2.76e-01  -0.1 9.64e-05 3.48e-02f  1
  73 -4.8891348e-01 4.62e-11 2.09e-01  -5.7 3.50e-01  -0.6 6.33e-02 2.43e-05f 10
  74 -5.0382749e-01 4.50e-11 2.14e-01  -5.7 4.83e-01  -0.2 1.82e-02 2.72e-02f  1
  75 -5.0381964e-01 4.50e-11 2.26e-01  -5.7 5.91e-01   0.2 4.22e-02 5.70e-05f 12
  76 -5.1349928e-01 4.44e-11 1.95e-01  -5.7 8.18e-01  -0.2 3.01e-02 1.26e-02f  1
  77 -5.1349252e-01 4.44e-11 1.96e-01  -5.7 3.49e-01  -0.7 8.38e-04 2.54e-05f 11
  78 -5.5399278e-01 6.05e-11 2.46e-01  -5.7 1.54e+00  -0.3 9.31e-03 2.73e-02f  1
  79 -5.5915721e-01 5.67e-11 7.35e-01  -5.7 9.29e-02   0.1 1.00e+00 6.29e-02f  1
iter    objective    inf_pr   inf_du lg(mu)  ||d||  lg(rg) alpha_du alpha_pr  ls
  80 -5.8989657e-01 1.05e-10 4.44e-01  -5.7 3.21e-02   0.6 3.25e-01 8.99e-01f  1
  81 -6.8594812e-01 6.12e-11 3.34e-01  -5.7 1.69e-01   0.1 6.77e-01 4.18e-01f  1
  82 -7.2340275e-01 3.42e-11 3.21e-01  -5.7 5.72e-02   0.5 1.00e+00 4.41e-01f  1
  83 -7.3757006e-01 2.85e-11 5.52e-01  -5.7 3.80e-01   0.0 4.03e-01 1.85e-02f  1
  84 -7.4988092e-01 2.58e-11 2.97e-01  -5.7 5.74e-02   0.5 1.00e+00 9.59e-02f  1
  85 -7.7717304e-01 2.48e-11 1.08e+00  -5.7 3.73e-01  -0.0 1.00e+00 3.72e-02f  1
  86 -9.4251774e-01 2.22e-16 2.12e-01  -5.7 7.48e-02   0.4 1.00e+00 1.00e+00f  1
  87 -9.4279340e-01 2.22e-16 2.12e-01  -5.7 2.64e+00    -  4.30e-03 3.85e-03f  1
  88 -9.4171667e-01 2.22e-16 2.11e-01  -5.7 6.11e-01    -  3.05e-02 3.10e-03h  3
  89 -9.4171061e-01 2.22e-16 2.11e-01  -5.7 3.73e-01    -  7.26e-02 1.43e-05h 12
iter    objective    inf_pr   inf_du lg(mu)  ||d||  lg(rg) alpha_du alpha_pr  ls
  90 -9.5858283e-01 2.22e-16 1.19e+00  -5.7 7.04e-01  -0.1 3.78e-01 1.13e-02f  1
  91 -9.5713009e-01 2.22e-16 1.09e+00  -5.7 6.09e-01  -0.5 3.01e-02 1.30e-03h  6
  92 -7.6795406e-01 2.22e-16 1.15e+00  -5.7 2.58e-01    -  1.08e-01 5.00e-01h  2
  93 -6.0237853e-01 2.22e-16 6.20e-01  -5.7 3.81e-01    -  4.22e-01 4.22e-01s 22
  94 -7.0677246e-01 2.22e-16 5.52e-01  -5.7 9.88e-01  -1.0 1.07e-01 1.07e-01s 22
  95 -5.4841369e-01 2.22e-16 3.82e-01  -5.7 5.44e-01    -  3.03e-01 3.03e-01s 22
Restoration phase is called at point that is almost feasible,
  with constraint violation 1.998401e-15. Abort.

Number of Iterations....: 95

                                   (scaled)                 (unscaled)
Objective...............:  -5.4841369288909891e-01   -5.4841369288909891e-01
Dual infeasibility......:   3.8166209932013662e-01    3.8166209932013662e-01
Constraint violation....:   2.2204460492503131e-16    2.2204460492503131e-16
Complementarity.........:   1.0239377853729042e-03    1.0239377853729042e-03
Overall NLP error.......:   3.8166209932013662e-01    3.8166209932013662e-01


Number of objective function evaluations             = 201
Number of objective gradient evaluations             = 97
Number of equality constraint evaluations            = 201
Number of inequality constraint evaluations          = 0
Number of equality constraint Jacobian evaluations   = 1
Number of inequality constraint Jacobian evaluations = 0
Number of Lagrangian Hessian evaluations             = 96
Total CPU secs in IPOPT (w/o function evaluations)   =      0.440
Total CPU secs in NLP function evaluations           =      7.060

EXIT: Restoration Failed!
